instancias/entrada08.lp
Maximize
 82x1 + 21x2 + 35x3 + 83x4 + 4x5 + 17x6 + 66x7 + 23x8 + 72x9 + 40x10
Subject To
 6x1 + 42x2 + 92x3 + 49x4 + 5x5 + 41x6 + 1x7 + 85x8 + 21x9 + 5x10 <= 100
Bound
 0 <= x1 <= 1
 0 <= x2 <= 1
 0 <= x3 <= 1
 0 <= x4 <= 1
 0 <= x5 <= 1
 0 <= x6 <= 1
 0 <= x7 <= 1
 0 <= x8 <= 1
 0 <= x9 <= 1
 0 <= x10 <= 1
General
 x1 x2 x3 x4 x5 x6 x7 x8 x9 x10
End
