instancias/entrada08.txt
10
100
82 21 35 83 4 17 66 23 72 40
6 42 93 49 5 41 1 85 21 5